assignment_2/output/hhi_greedy/lambda50.0/a20_lambda50.0.tour
NAME : a20
COMMENT : Tour length 366
TYPE : TOUR
DIMENSION : 20
TOUR_SECTION
1
20
19
18
17
16
15
14
13
12
11
10
8
7
9
6
5
4
3
2
1
-1
EOF